s td 397 16 492
b 1 4 24 179 217 469
b 2 6 95 217 469
b 3 9 18 71
b 4 19 247 259 429
b 5 20 24 155 394
b 6 27 60 338 423 479
b 7 29 164 405 416 434
b 8 30 174 233 491
b 9 25 35 62 280
b 10 36 268 349 361 458
b 11 52 170 265 323
b 12 53 164 241 269 379
b 13 24 50 57 143
b 14 58 72 225
b 15 80 125 229 264
b 16 92 93 137 236
b 17 25 102 123 281
b 18 105 268 349 369
b 19 108 127 397 472
b 20 93 111 202 417
b 21 40 118 229 374
b 22 77 130 229 471
b 23 47 64 131 296
b 24 116 134 380
b 25 10 125 127 139 229
b 26 37 97 142 342 393
b 27 97 147 312 433
b 28 21 24 148 179
b 29 124 149 228
b 30 103 145 159 300
b 31 126 166 267 272 368
b 32 97 169 273 407
b 33 21 24 179 183
b 34 180 187 259 297
b 35 2 191 265 270
b 36 122 207 338 391 439
b 37 212 380 456
b 38 224 268 339 435
b 39 238 330 489
b 40 107 127 251 471
b 41 50 144 257 469
b 42 68 200 259 262
b 43 46 227 259 266 464
b 44 86 161 271 279 396
b 45 65 283 339 361
b 46 10 127 291 315
b 47 9 84 295
b 48 67 290 302 396
b 49 25 93 137 308 425
b 50 327 387 428
b 51 39 228 336
b 52 75 93 154 367
b 53 3 119 132 385 441
b 54 175 293 386 396
b 55 82 229 351 390
b 56 115 303 392 469
b 57 121 223 361 408
b 58 25 165 410 417
b 59 181 265 335 413 473
b 60 197 361 426 458
b 61 197 361 431 458
b 62 268 349 369 440
b 63 157 428 446
b 64 93 186 340 455
b 65 198 268 459 478
b 66 95 217 460 469
b 67 25 375 425 461
b 68 268 288 317 467
b 69 127 319 331 484
b 70 8 11 361 485
b 71 42 48 469 487
b 72 8 11 66 361
b 73 11 44 66 361
b 74 11 66 223 361
b 75 66 121 223 361
b 76 66 223 301 361
b 77 66 361 458
b 78 14 24 155 348
b 79 24 155 348 394
b 80 17 104 127 331
b 81 104 127 319 331
b 82 23 25 62 447
b 83 25 62 280 447
b 84 3 39 228
b 85 40 160 229 374
b 86 160 229 316 374
b 87 42 48 136 469
b 88 48 136 176 469
b 89 48 136 303 469
b 90 115 136 303 469
b 91 136 303 358 469
b 92 136 217 469
b 93 25 62 281 447
b 94 25 123 281 447
b 95 25 281 362 447
b 96 25 425 447
b 97 65 339 361 458
b 98 282 339 361 458
b 99 9 71 272
b 100 82 160 229 351
b 101 160 229 253 351
b 102 160 229 351 374
b 103 160 229 374
b 104 125 160 229
b 105 9 84 138
b 106 87 268 339 349
b 107 268 339 349 435
b 108 116 132 380
b 109 124 228 249
b 110 9 138 189 272
b 111 24 50 143 179
b 112 24 50 179 204
b 113 50 144 217 469
b 114 50 217 341 469
b 115 75 93 154 450
b 116 75 93 438 450
b 117 75 93 186 450
b 118 93 186 286 450
b 119 93 186 340 450
b 120 93 137 450
b 121 24 155 348 442
b 122 24 348 411 442
b 123 157 267 428
b 124 198 222 231 268
b 125 198 231 268 478
b 126 198 231 268 288
b 127 231 268 288 317
b 128 231 268 288 370
b 129 231 268 349
b 130 3 70 228 249
b 131 104 127 331 472
b 132 104 127 397 472
b 133 104 127 468 472
b 134 104 127 472
b 135 10 104 127
b 136 24 228 348 381 442
b 137 24 228 348 442
b 138 24 179 228 348
b 139 2 188 265 270 335
b 140 188 265 270 335 360 473
b 141 188 265 335 360 452 473
b 142 188 265 335 452 473 492
b 143 265 335 373 452 473 492
b 144 265 335 373 424 452 492
b 145 265 335 371 424 452
b 146 170 265 335 373 473 492
b 147 170 265 323 335 492
b 148 181 188 265 335 473 492
b 149 16 100 380 430
b 150 45 112 125 264 287
b 151 49 85 242 248 254
b 152 67 86 290 333 396
b 153 86 161 290 333 396 427
b 154 86 161 279 333 396 427
b 155 86 263 290 333 396 427
b 156 68 110 200 259 464
b 157 46 110 200 259 354 464
b 158 46 110 259 354 464 476
b 159 110 259 354 464 476
b 160 46 110 227 259 464 476
b 161 9 43 74 89 173 234 272 343 346 355 356 357 382 383 401
b 162 43 74 89 173 234 343 346 355 356 357 382 383 401 471
b 163 43 74 83 89 173 234 346 357 401 471
b 164 28 33 74 83 89 99 125 173 229 346 357 398 401 471
b 165 28 33 74 83 88 99 125 173 229 357 398 401 471
b 166 28 33 74 83 88 99 125 173 229 252 287 315 398 471
b 167 33 69 74 83 88 125 173 229 252 287 294 315 398 471
b 168 10 69 74 125 127 229 252 287 294 315 398 471
b 169 10 107 127 287 471
b 170 10 74 127 177 294 398
b 171 10 127 287 298 315 471
b 172 10 287 298 309 315
b 173 10 69 74 127 398 445
b 174 33 69 83 88 173 252 294 315 337
b 175 83 88 140 173 252 294 315 337
b 176 83 140 146 173 252 337
b 177 33 69 83 88 235 252 294 315 337
b 178 83 88 235 252 294 315 449
b 179 77 125 229 287 471
b 180 28 74 83 88 99 125 173 229 252 264 287 315 398 471
b 181 112 125 229 264 287 471
b 182 28 74 83 88 99 120 125 173 229 252 264 398
b 183 74 83 88 99 120 125 193 229 252 264 398
b 184 74 125 172 193 229 398
b 185 83 88 99 120 125 193 229 252 264 285
b 186 83 88 99 193 260 264 285
b 187 83 88 120 193 264 285 415
b 188 28 33 74 89 99 125 135 229 346 398
b 189 28 74 99 125 135 220 229 398
b 190 74 125 220 229 398 462
b 191 343 355 356 382 383 471 486
b 192 106 343 355 356 382 471 486
b 193 21 106 217 297 343 355 356 469 471 486
b 194 21 24 106 179 217 297 356 469 471 486
b 195 21 24 106 179 259 297 356 486
b 196 15 21 24 106 179 259 356 486
b 197 15 21 22 106 179 259 486
b 198 24 106 179 243 259 297 356
b 199 24 180 243 259 297 356
b 200 24 179 228 259
b 201 21 103 106 217 297 343 355 356 469 486
b 202 21 103 106 217 300 356 469 486
b 203 21 106 217 300 356 364 469 486
b 204 21 95 217 300 364 469 486
b 205 106 192 217 356 364 469
b 206 103 106 145 217 300 356 469
b 207 106 145 217 274 356 469
b 208 9 43 74 89 267 272 343 346 355 356 357 382 383 401 489
b 209 43 74 267 272 321 346 355 356 357 382 383 384 401 409 489
b 210 43 74 272 321 346 356 357 382 383 384 396 401 409 475 489
b 211 43 74 246 272 321 346 356 357 382 383 396 401 409 475 489
b 212 43 74 190 246 272 321 346 352 357 383 396 401 409 475 489
b 213 26 43 74 190 246 321 352 357 383 396 401 409 475 489
b 214 26 43 61 190 246 321 352 357 383 396 409 422 475 489
b 215 61 163 246 321 383 422 489
b 216 26 43 61 289 352 357 422
b 217 61 246 306 383 409 422 489
b 218 26 43 61 190 328 357 422
b 219 61 396 422 451 475
b 220 26 74 366 396 401 475
b 221 74 91 190 272 346 352 396 401 475
b 222 74 91 190 346 376 396 401 475
b 223 74 376 396 401 475 481
b 224 113 246 356 382 396 475
b 225 184 356 382 384 396 475
b 226 152 267 321 355 384 409
b 227 43 74 89 171 267 272 343 356 357 382 383 401 448 470 489
b 228 43 74 89 97 171 272 310 356 357 382 383 401 448 470 489
b 229 43 74 89 97 272 310 356 357 382 383 401 444 448 470 489
b 230 43 74 89 97 150 239 272 310 357 383 401 444 448 470 489
b 231 74 89 97 150 239 272 310 401 488
b 232 32 74 89 97 150 239 272 488
b 233 32 89 150 232 239 272
b 234 43 74 97 150 239 299 310 357 383 401 444 448 470 489
b 235 43 97 150 239 299 310 357 363 383 419 444 448 470 489
b 236 59 97 310 363 419
b 237 43 208 239 299 357 363 419
b 238 211 363 383 419 444 448 489
b 239 43 150 284 299 357 363 419
b 240 363 383 419 444 465 470 489
b 241 74 97 98 299 310 401
b 242 54 97 310 356 382 444
b 243 97 171 310 356 382 402
b 244 76 171 267 343 448 470
b 245 9 43 74 89 267 272 346 355 356 357 382 383 401 466 489
b 246 9 43 89 126 267 272 346 355 357 383 466 489
b 247 9 89 126 267 272 346 355 368 466
b 248 9 89 267 346 355 368 428 466
b 249 9 89 241 346 355 368 428 466
b 250 9 89 164 241 368 428 466
b 251 9 241 292 346 355 428
b 252 9 178 292 355 428
b 253 267 330 356 382 383 489
b 254 9 43 173 189 234 272
b 255 101 194 350 464 476
b 256 60 63 122 338
b 257 37 97 151 332 363
b 258 158 199 209 378 418
b 259 1 3 38 55 63 195 205 209 228 378 388 417 418 454 463
b 260 3 63 132 205 209 225 228 242 248 254 378 417 418 430 454
b 261 3 63 132 167 205 209 225 242 248 254 378 417 418 430
b 262 3 31 63 117 132 167 205 209 225 242 248 254 372 378 418
b 263 31 117 132 167 205 209 225 242 248 254 265 365 372 378 418
b 264 117 132 167 205 209 225 242 248 254 255 265 365 372 378 418
b 265 117 132 153 167 196 205 225 242 248 254 255 265 365 372 418
b 266 132 153 167 196 225 242 248 254 265 311 365 403
b 267 81 132 153 167 196 225 248 254 265 311 403
b 268 5 81 132 153 167 196 225 254 403
b 269 5 132 153 196 215 225 254 403
b 270 153 196 215 225 254 275 403
b 271 5 81 153 167 196 225 254 258 403
b 272 5 81 167 196 254 258 403 437
b 273 242 248 261 265 365 403
b 274 7 117 153 196 205 255 418
b 275 153 156 196 205 255 372 418
b 276 153 196 219 265 365
b 277 34 209 255 265 365 378
b 278 31 51 209 265 365 378
b 279 3 31 63 117 203 372
b 280 85 167 242 248 254 417 430
b 281 85 167 242 248 359 417 430
b 282 85 167 248 268 296 349 359 369 417 430
b 283 85 248 268 296 349 359 361 369 417 458
b 284 47 85 248 296 359 361 369 458
b 285 47 214 248 296 359 361 458
b 286 47 64 214 248 296 361
b 287 47 85 221 248 359 361 369 458
b 288 47 85 197 221 361 369 458
b 289 221 248 324 359 361 458
b 290 85 167 233 248 268 296 349 359 369 430
b 291 85 233 248 268 349 359 369 491
b 292 174 233 248 268 349 359 491
b 293 90 174 248 268 349 359
b 294 85 248 268 349 359 369 400 491
b 295 85 329 349 359 369 400 491
b 296 3 56 132 205 209 213 225 228 242 248 254 305 378 418 430 454
b 297 56 132 205 209 213 225 228 242 248 254 259 305 378 418 430
b 298 56 132 205 209 213 225 242 248 254 259 305 320 378 418 430
b 299 12 56 132 205 209 225 242 248 254 259 305 320 378 418 430
b 300 12 56 94 132 205 225 242 248 254 259 305 320 418 430 490
b 301 78 94 132 225 242 248 254 259 320 430 453 490
b 302 78 94 109 225 242 248 254 259 320 453 490
b 303 78 109 216 242 248 254 259 320 453 490
b 304 206 216 242 248 259 320
b 305 78 94 132 225 242 248 259 320 412 430 453
b 306 132 242 248 259 276 320 412 430 453
b 307 114 242 248 259 276 320 430 453
b 308 114 242 248 259 320 353
b 309 12 56 94 205 250 418 490
b 310 12 94 205 278 305 418 490
b 311 94 259 320 421 490
b 312 12 209 259 320 378 482
b 313 209 213 259 304 320 378
b 314 3 56 213 244 305 454
b 315 3 63 96 132 205 209 225 228 242 248 254 378 418 430 454
b 316 3 63 96 132 205 225 228 254 418 430 441 454
b 317 63 96 132 228 380 430 441 454
b 318 63 96 228 338 380 430 441 454
b 319 60 63 228 338 380 430 454
b 320 60 228 313 380 430 454
b 321 100 228 313 380 430
b 322 3 119 132 205 225 254 418 441
b 323 72 132 225 242 248 254
b 324 1 38 55 63 195 199 209 378 388 417 418 454 463
b 325 1 38 55 63 195 199 209 347 378 388 417 454 463
b 326 1 38 55 63 195 199 345 347 378 388 417 436 454 463
b 327 1 38 41 55 73 195 199 345 347 378 388 417 436 463
b 328 1 25 38 41 73 195 199 347 378 388 417 425 436 463
b 329 1 25 38 73 195 199 347 375 378 388 417 425 436 463
b 330 1 13 25 195 199 326 347 375 378 388 417 425 436 463
b 331 1 13 25 195 199 236 325 326 347 375 378 417 425 463
b 332 1 25 93 137 236 325 326 347 375 378 417 425
b 333 79 93 137 325 347 378
b 334 25 93 137 236 375 395 417 425
b 335 25 165 395 417 425
b 336 93 137 202 395 417
b 337 93 137 236 322 395 417
b 338 137 236 322 395 477
b 339 25 375 395 417 425 457
b 340 375 395 425 457 483
b 341 93 137 326 347 378 414
b 342 1 13 199 226 236 325 463
b 343 1 25 38 73 168 199 347 375 378 425 463
b 344 1 25 38 73 133 168 199 375 425 463
b 345 38 133 168 199 218 375 463
b 346 73 133 168 199 375 404 463
b 347 25 168 347 377 378 425
b 348 25 41 245 347 378 425
b 349 1 3 38 55 129 195 205 209 228 378 388 418 463
b 350 1 3 38 55 70 129 195 205 228 388 463
b 351 1 3 38 55 70 195 388 463 480
b 352 1 141 195 388 463 480
b 353 182 259 464 476 490
b 354 86 201 263 333 427
b 355 86 128 230 314 427
b 356 237 267 330 489
b 357 194 247 259 429 464
b 358 194 227 259 429 464 476
b 359 46 227 259 429 464 476
b 360 194 259 350 429 464 476
b 361 110 354 406 464 476
b 362 259 421 464 476 490
b 363 37 185 256 332 389
b 364 86 128 161 279 396 427
b 365 86 128 161 175 396 427
b 366 86 128 175 314 396 427
b 367 86 128 175 293 396
b 368 37 162 307 332 432
b 369 178 318 355 428
b 370 86 334 396 422 427
b 371 86 396 422 427 451
b 372 86 396 422 451 475
b 373 196 265 335 344 371
b 374 196 219 265 335 371
b 375 196 219 265 335 365
b 376 74 88 357 399 401
b 377 89 164 241 405
b 378 37 97 273 407 432
b 379 37 97 273 332 342 432
b 380 37 97 332 342 393 432
b 381 37 97 162 273 332 432
b 382 37 97 332 342 389 393
b 383 37 97 332 342 389
b 384 37 97 312 332 342 389
b 385 37 97 312 389 433
b 386 37 97 185 312 332 389
b 387 37 59 97 332 363
b 388 37 59 97 310 363
b 389 72 132 225 443
b 390 259 320 421 464 490
b 391 356 382 383 474 486
b 392 1 93 137 210 236
b 393 125 229 240 264 285
b 394 10 127 252 277 315
b 395 25 133 375 420 425
b 396 24 50 179 217 469 471
b 397 268 339 349 361 417 458
1 194
2 204
3 99
4 357
5 79
6 319
7 377
8 292
9 83
10 283
11 147
12 250
13 111
14 323
15 180
16 332
17 94
18 282
19 132
20 336
21 85
22 179
23 286
24 108
25 168
26 382
27 385
28 194
29 109
30 206
31 247
32 378
33 194
34 199
35 139
36 256
37 317
38 107
39 253
40 169
41 113
42 156
43 160
44 364
45 97
46 168
47 105
48 152
49 332
50 248
51 84
52 115
53 322
54 367
55 100
56 90
57 75
58 335
59 148
60 288
61 288
62 282
63 123
64 119
65 125
66 204
67 329
68 127
69 81
70 72
71 87
72 74
73 74
74 76
75 76
76 77
77 283
78 121
79 121
80 131
81 131
82 93
83 93
84 259
85 103
86 103
87 89
88 89
89 91
90 91
91 92
92 193
93 95
94 95
95 96
96 328
97 397
98 397
99 161
100 102
101 102
102 103
103 104
104 164
105 110
106 397
107 397
108 317
109 130
110 254
111 396
112 396
113 396
114 396
115 117
116 117
117 119
118 119
119 120
120 332
121 137
122 137
123 248
124 126
125 126
126 128
127 128
128 129
129 282
130 350
131 134
132 134
133 134
134 135
135 168
136 137
137 138
138 200
139 140
140 141
141 142
142 148
142 143
143 146
143 144
144 145
145 374
146 147
149 321
150 181
151 280
152 153
153 155
153 154
154 364
155 354
156 157
157 158
158 361
158 362
158 160
158 159
160 359
161 162
161 208
161 254
162 163
162 191
163 164
164 165
164 188
165 376
165 166
166 167
166 179
166 180
167 168
167 174
168 394
168 169
168 170
168 171
168 173
171 172
174 175
174 177
175 176
177 178
180 181
180 182
182 183
183 184
183 185
185 393
185 186
185 187
188 189
189 190
191 391
191 192
192 193
193 194
193 201
194 396
194 195
195 196
195 198
195 200
196 197
198 199
200 297
201 202
202 203
202 206
203 204
203 205
206 207
208 209
208 227
208 245
208 253
209 210
209 226
210 211
210 225
211 212
211 224
212 213
212 221
213 214
213 220
214 215
214 216
214 217
214 218
214 219
219 372
221 222
222 223
227 228
227 244
228 229
228 243
229 230
229 242
230 231
230 234
231 232
232 233
234 235
234 241
235 236
235 237
235 238
235 239
235 240
236 388
245 246
246 247
247 248
248 249
249 250
249 251
250 377
251 252
252 369
253 356
255 360
256 319
257 387
258 324
259 260
259 324
259 349
260 261
260 296
260 315
260 323
261 262
261 280
262 263
262 279
263 264
263 278
264 265
264 277
265 266
265 274
265 275
265 276
266 267
266 273
267 268
268 269
268 271
269 270
271 272
276 375
280 281
281 282
282 283
282 290
283 397
283 284
284 285
284 287
285 286
287 288
287 289
290 291
291 292
291 294
292 293
294 295
296 297
296 314
297 298
298 299
298 313
299 300
299 312
300 301
300 309
300 310
300 311
301 302
301 305
302 303
303 304
305 306
306 307
307 308
311 390
315 316
316 317
316 322
317 318
318 319
319 320
320 321
323 389
324 325
325 326
326 327
327 328
328 329
328 348
329 330
329 343
330 331
331 332
331 342
332 392
332 333
332 334
332 341
334 335
334 336
334 337
334 339
337 338
339 340
343 344
343 347
344 395
344 345
344 346
349 350
350 351
351 352
353 362
355 366
357 358
358 360
358 359
362 390
363 386
364 371
364 365
365 366
366 367
368 381
370 371
371 372
373 374
374 375
378 379
379 381
379 380
380 382
382 387
382 383
383 384
384 385
384 386
387 388
